0 0 0 0
0 1 0 0
0 2 2 10
0 3 2 0
0 4 0 2
0 5 2 2
0 6 2 4
0 7 0 4
0 8 0 11
0 9 1 17
0 10 2 10
0 11 2 11
0 12 0 18
0 13 2 2
0 14 1 18
0 15 0 21
0 16 1 17
0 17 2 23
0 18 1 22
0 19 0 23
0 20 0 26
0 21 0 31
0 22 0 28
0 23 0 28
0 24 2 26
0 25 1 23
0 26 0 30
0 27 0 31
0 28 1 30
0 29 2 18
0 30 0 34
0 31 0 35
